# Solution for model GasLib-40
# Objective value = 1.0528957816765612e+01
loadshed[innode_1] 0
loadshed[innode_2] 0
loadshed[innode_3] 0
loadshed[innode_4] 0
loadshed[innode_5] 0
loadshed[innode_6] 0
loadshed[innode_7] 0
loadshed[innode_8] 0
loadshed[source_1] -0.31300037119222
loadshed[source_2] 8.0879983828756719e-02
loadshed[source_3] 2.9872130656458828e-01
loadshed[sink_1] 0
loadshed[sink_2] 0
loadshed[sink_3] 0
loadshed[sink_4] 0
loadshed[sink_5] 0
loadshed[sink_6] 0
loadshed[sink_7] 0
loadshed[sink_8] 0
loadshed[sink_9] 0
loadshed[sink_10] 0
loadshed[sink_11] 0
loadshed[sink_12] 6.4380888561114569e-01
loadshed[sink_13] 0
loadshed[sink_14] 0
loadshed[sink_15] 0
loadshed[sink_16] 0
loadshed[sink_17] 0
loadshed[sink_18] 0
loadshed[sink_19] 0
loadshed[sink_20] 0
loadshed[sink_21] 0
loadshed[sink_22] 0
loadshed[sink_23] 0
loadshed[sink_24] 0
loadshed[sink_25] 0
loadshed[sink_26] 0
loadshed[sink_27] 0
loadshed[sink_28] 0
loadshed[sink_29] 0
flow[source_1,sink_3] 2.0757259340410337e+02
flow[innode_1,sink_16] 1.6354166666666970e+01
flow[innode_6,sink_13] 3.6138232218250437e+00
flow[sink_13,sink_14] -1.2740343444841624e+01
flow[sink_14,sink_10] -2.9094510111508271e+01
flow[sink_25,sink_26] 1.7157845648027774e+02
flow[sink_26,sink_9] 1.2183752997207276e+02
flow[sink_9,sink_18] 1.0548336330540609e+02
flow[sink_26,sink_4] 3.3386759841538378e+01
flow[sink_4,sink_20] -1.7190156481887414e+01
flow[sink_18,sink_6] 8.9129196638739415e+01
flow[sink_25,innode_8] -1.7486426007076705e+02
flow[sink_6,sink_7] 4.0066696638738449e+01
flow[sink_6,sink_22] 3.2708333333333641e+01
flow[sink_7,sink_24] 3.8533542183234388e+01
flow[sink_22,sink_1] 1.6354166666666970e+01
flow[sink_24,sink_21] 2.2179375516567724e+01
flow[sink_21,sink_12] 5.8252088499010544e+00
flow[sink_7,sink_5] -1.4821012211162127e+01
flow[sink_5,sink_17] -3.1175178877828785e+01
flow[sink_17,sink_4] -3.4222749656759106e+01
flow[sink_17,sink_8] -1.3306595887736307e+01
flow[sink_3,sink_23] 16.3541666666697
flow[sink_8,sink_20] -2.9660762554402993e+01
flow[sink_25,sink_20] 6.3205085702956893e+01
flow[sink_25,sink_15] -7.9887272000959527e+01
flow[sink_15,sink_29] 0
flow[sink_29,sink_28] 1.6354166666667879e+01
flow[sink_29,sink_2] 1.1259560533429287e+02
flow[sink_2,sink_15] 96.2414386676262
flow[sink_29,innode_7] -1.4530393866762745e+02
flow[innode_4,sink_19] 4.2630299191764948e+01
flow[sink_19,innode_3] 7.8157010111508839e+01
flow[innode_4,innode_5] 6.8235044253076353e+01
flow[sink_27,innode_5] -6.8235044253076353e+01
flow[sink_27,sink_19] 5.1880877586409611e+01
flow[sink_10,sink_11] 3.2708333333333641e+01
flow[sink_10,innode_2] 0
flow[sink_10,innode_3] -7.8157010111508839e+01
flow[innode_6,sink_25] -3.6138232218250437e+00
flow[sink_11,innode_1] 1.6354166666666970e+01
flow[sink_19,innode_2] 0
flow[source_3,innode_4] 1.1086534344484130e+02
flow[source_2,innode_7] 1.4530393866762745e+02
flow[sink_3,innode_8] 1.7486426007076705e+02
pressure[innode_1] 7.4800332608182714e+01
pressure[innode_2] 7.4952033915786259e+01
pressure[innode_3] 7.9113118108549514e+01
pressure[innode_4] 81.01325
pressure[innode_5] 80.9663143385177
pressure[innode_6] 7.3573026914116014e+01
pressure[innode_7] 81.01325
pressure[innode_8] 8.0319414115854912e+01
pressure[source_1] 81.01325
pressure[source_2] 81.01325
pressure[source_3] 81.01325
pressure[sink_1] 4.5898771351795816e+01
pressure[sink_2] 7.4274765113201170e+01
pressure[sink_3] 8.0319414115854912e+01
pressure[sink_4] 57.2439779316046
pressure[sink_5] 53.613771800019
pressure[sink_6] 4.7999848962183187e+01
pressure[sink_7] 4.7449828721883357e+01
pressure[sink_8] 5.6438189718282359e+01
pressure[sink_9] 5.4196566363812337e+01
pressure[sink_10] 7.4952033915786259e+01
pressure[sink_11] 7.4800332608182714e+01
pressure[sink_12] 1.0132500000000007e+00
pressure[sink_13] 7.3553104510620059e+01
pressure[sink_14] 73.5759044404519
pressure[sink_15] 73.9605580272228
pressure[sink_16] 7.3778682773365034e+01
pressure[sink_17] 5.5936097285752034e+01
pressure[sink_18] 50.3798638849303
pressure[sink_19] 7.9286187957120163e+01
pressure[sink_20] 5.8505127740981145e+01
pressure[sink_21] 3.0861781237170041e+00
pressure[sink_22] 4.6962540494150829e+01
pressure[sink_23] 8.0154696104195125e+01
pressure[sink_24] 3.3317941004654861e+00
pressure[sink_25] 7.3573026914116014e+01
pressure[sink_26] 6.1488856986649665e+01
pressure[sink_27] 8.0400089556021811e+01
pressure[sink_28] 7.6831656594549528e+01
pressure[sink_29] 77.1269388681667
interdiction[source_1,sink_3] 0
interdiction[innode_1,sink_16] 0
interdiction[innode_6,sink_13] 0
interdiction[sink_13,sink_14] 0
interdiction[sink_14,sink_10] 0
interdiction[sink_25,sink_26] 0
interdiction[sink_26,sink_9] 0
interdiction[sink_9,sink_18] 0
interdiction[sink_26,sink_4] 0
interdiction[sink_4,sink_20] 0
interdiction[sink_18,sink_6] 0
interdiction[sink_25,innode_8] 0
interdiction[sink_6,sink_7] 0
interdiction[sink_6,sink_22] 0
interdiction[sink_7,sink_24] 0
interdiction[sink_22,sink_1] 0
interdiction[sink_24,sink_21] 0
interdiction[sink_21,sink_12] 0
interdiction[sink_7,sink_5] 0
interdiction[sink_5,sink_17] 0
interdiction[sink_17,sink_4] 0
interdiction[sink_17,sink_8] 0
interdiction[sink_3,sink_23] 0
interdiction[sink_8,sink_20] 0
interdiction[sink_25,sink_20] 0
interdiction[sink_25,sink_15] 0
interdiction[sink_15,sink_29] 1
interdiction[sink_29,sink_28] 0
interdiction[sink_29,sink_2] 0
interdiction[sink_2,sink_15] 0
interdiction[sink_29,innode_7] 0
interdiction[innode_4,sink_19] 0
interdiction[sink_19,innode_3] 0
interdiction[innode_4,innode_5] 0
interdiction[sink_27,innode_5] 0
interdiction[sink_27,sink_19] 0
interdiction[sink_10,sink_11] 0
interdiction[sink_10,innode_2] 0
interdiction[sink_10,innode_3] 0
interdiction[innode_6,sink_25] 0
interdiction[sink_11,innode_1] 0
interdiction[sink_19,innode_2] 1
interdiction[source_3,innode_4] 0
interdiction[source_2,innode_7] 0
interdiction[sink_3,innode_8] 0
WCcheckFlow[source_1,sink_3] 39
WCcheckFlow[innode_1,sink_16] 1
WCcheckFlow[innode_6,sink_13] 13
WCcheckFlow[sink_13,sink_14] 12
WCcheckFlow[sink_14,sink_10] 11
WCcheckFlow[sink_25,sink_26] 15
WCcheckFlow[sink_26,sink_9] 12
WCcheckFlow[sink_9,sink_18] 11
WCcheckFlow[sink_26,sink_4] 2
WCcheckFlow[sink_4,sink_20] 1
WCcheckFlow[sink_18,sink_6] 10
WCcheckFlow[sink_25,innode_8] -36
WCcheckFlow[sink_6,sink_7] 7
WCcheckFlow[sink_6,sink_22] 2
WCcheckFlow[sink_7,sink_24] 3
WCcheckFlow[sink_22,sink_1] 1
WCcheckFlow[sink_24,sink_21] 2
WCcheckFlow[sink_21,sink_12] 1
WCcheckFlow[sink_7,sink_5] 3
WCcheckFlow[sink_5,sink_17] 2
WCcheckFlow[sink_17,sink_4] 0
WCcheckFlow[sink_17,sink_8] 1
WCcheckFlow[sink_3,sink_23] 1
WCcheckFlow[sink_8,sink_20] 0
WCcheckFlow[sink_25,sink_20] 0
WCcheckFlow[sink_25,sink_15] 6
WCcheckFlow[sink_15,sink_29] 0
WCcheckFlow[sink_29,sink_28] 1
WCcheckFlow[sink_29,sink_2] -4
WCcheckFlow[sink_2,sink_15] -5
WCcheckFlow[sink_29,innode_7] 2
WCcheckFlow[innode_4,sink_19] -4
WCcheckFlow[sink_19,innode_3] -5
WCcheckFlow[innode_4,innode_5] 2
WCcheckFlow[sink_27,innode_5] -1
WCcheckFlow[sink_27,sink_19] 0
WCcheckFlow[sink_10,sink_11] 3
WCcheckFlow[sink_10,innode_2] 1
WCcheckFlow[sink_10,innode_3] 6
WCcheckFlow[innode_6,sink_25] -14
WCcheckFlow[sink_11,innode_1] 2
WCcheckFlow[sink_19,innode_2] 0
WCcheckFlow[source_3,innode_4] -1
WCcheckFlow[source_2,innode_7] -1
WCcheckFlow[sink_3,innode_8] 37
